proyfinal/src/viki/013/andrea/andrea-localstore/experimentInOfficeAgust.take6/worker_3/eafe4277-4788-4928-8bf0-d1331a1c6860.als.cnf.out
Reading from standard input... Use '--help' for help.
============================[ Problem Statistics ]=============================
|                                                                             |
|  Number of variables:         87638                                         |
|  Number of clauses:          161767                                         |
|  Parse time:                   0.04 s                                       |
|                                                                             |
============================[ Search Statistics ]==============================
| Conflicts |          ORIGINAL         |          LEARNT          | Progress |
|           |    Vars  Clauses Literals |    Limit  Clauses Lit/Cl |          |
===============================================================================
|       100 |   62399   105187   262871 |    38568      100     17 | 28.799 % |
|       250 |   62399   105187   262871 |    42425      250     30 | 28.799 % |
|       475 |   62398   105143   262781 |    46667      474     35 | 28.800 % |
|       812 |   62398   105143   262781 |    51334      811     42 | 28.800 % |
|      1318 |   62398   105143   262781 |    56468     1317     66 | 28.800 % |
|      2077 |   62398   105143   262781 |    62115     2076     67 | 28.800 % |
|      3216 |   62379   105067   262600 |    68326     2668     67 | 28.822 % |
|      4924 |   62360   104990   262423 |    75159     4161     74 | 28.844 % |
|      7486 |   48806    65231   164404 |    82675     6336     67 | 44.310 % |
|     11330 |   48579    64310   162311 |    90942     8836     57 | 44.569 % |
===============================================================================
restarts              : 57
conflicts             : 12862          (8271 /sec)
decisions             : 39880          (0.00 % random) (25644 /sec)
propagations          : 16944467       (10895712 /sec)
conflict literals     : 656842         (46.85 % deleted)
Memory used           : 27.38 MB
CPU time              : 1.55515 s

UNSATISFIABLE
